rcpsp/heur_output_bi_constraints/Log=5/heurj30.txt
encoding rcpsp/j30.sm/j3028_2.sm nv: 202536 nc: 409662 enctime: 2.50
encoding rcpsp/j30.sm/j3028_2.sm nv: 61692 nc: 123860 enctime: 0.67
c File: j3028_2.smnaivebi5.wcnf
c optimal
c final solution cost: 49
c CPU time: 0.451055
s OPTIMUM FOUND

c File: j3028_2.smbi5.wcnf
c optimal
c final solution cost: 49
c CPU time: 0.116600
s OPTIMUM FOUND


rcpsp/heur_output_bi_constraints/Log=5/heurj30.txt
encoding rcpsp/j30.sm/j3028_3.sm nv: 137088 nc: 275362 enctime: 1.62
encoding rcpsp/j30.sm/j3028_3.sm nv: 45360 nc: 90541 enctime: 0.48
c File: j3028_3.smnaivebi5.wcnf
c optimal
c final solution cost: 39
c CPU time: 0.356801
s OPTIMUM FOUND

c File: j3028_3.smbi5.wcnf
c optimal
c final solution cost: 39
c CPU time: 0.101038
s OPTIMUM FOUND


rcpsp/heur_output_bi_constraints/Log=5/heurj30.txt
encoding rcpsp/j30.sm/j3028_4.sm nv: 197227 nc: 397480 enctime: 2.42
encoding rcpsp/j30.sm/j3028_4.sm nv: 51964 nc: 103879 enctime: 0.57
c File: j3028_4.smnaivebi5.wcnf
c optimal
c final solution cost: 43
c CPU time: 0.433361
s OPTIMUM FOUND

c File: j3028_4.smbi5.wcnf
c optimal
c final solution cost: 43
c CPU time: 0.085616
s OPTIMUM FOUND


rcpsp/heur_output_bi_constraints/Log=5/heurj30.txt
encoding rcpsp/j30.sm/j3028_5.sm nv: 182838 nc: 376334 enctime: 2.32
encoding rcpsp/j30.sm/j3028_5.sm nv: 73725 nc: 150893 enctime: 0.91
c File: j3028_5.smnaivebi5.wcnf
c optimal
c final solution cost: 64
c CPU time: 0.433068
s OPTIMUM FOUND

c File: j3028_5.smbi5.wcnf
c optimal
c final solution cost: 64
c CPU time: 0.151544
s OPTIMUM FOUND


rcpsp/heur_output_bi_constraints/Log=5/heurj30.txt
encoding rcpsp/j30.sm/j3028_6.sm nv: 152280 nc: 311861 enctime: 1.89
encoding rcpsp/j30.sm/j3028_6.sm nv: 54520 nc: 110933 enctime: 0.60
c File: j3028_6.smnaivebi5.wcnf
c optimal
c final solution cost: 50
c CPU time: 0.352656
s OPTIMUM FOUND

c File: j3028_6.smbi5.wcnf
c optimal
c final solution cost: 50
c CPU time: 0.103803
s OPTIMUM FOUND


rcpsp/heur_output_bi_constraints/Log=5/heurj30.txt
encoding rcpsp/j30.sm/j3028_7.sm nv: 208420 nc: 418836 enctime: 2.55
encoding rcpsp/j30.sm/j3028_7.sm nv: 60074 nc: 119845 enctime: 0.66
c File: j3028_7.smnaivebi5.wcnf
c optimal
c final solution cost: 48
c CPU time: 0.500032
s OPTIMUM FOUND

c File: j3028_7.smbi5.wcnf
c optimal
c final solution cost: 48
c CPU time: 0.114156
s OPTIMUM FOUND


rcpsp/heur_output_bi_constraints/Log=5/heurj30.txt
encoding rcpsp/j30.sm/j3028_8.sm nv: 203476 nc: 413254 enctime: 2.49
encoding rcpsp/j30.sm/j3028_8.sm nv: 63882 nc: 128874 enctime: 0.80
c File: j3028_8.smnaivebi5.wcnf
c optimal
c final solution cost: 53
c CPU time: 0.455117
s OPTIMUM FOUND

c File: j3028_8.smbi5.wcnf
c optimal
c final solution cost: 53
c CPU time: 0.109300
s OPTIMUM FOUND


rcpsp/heur_output_bi_constraints/Log=5/heurj30.txt
encoding rcpsp/j30.sm/j3028_9.sm nv: 184128 nc: 380567 enctime: 2.37
encoding rcpsp/j30.sm/j3028_9.sm nv: 69048 nc: 141767 enctime: 0.85
c File: j3028_9.smnaivebi5.wcnf
c optimal
c final solution cost: 62
c CPU time: 0.526684
s OPTIMUM FOUND

c File: j3028_9.smbi5.wcnf
c optimal
c final solution cost: 62
c CPU time: 0.177476
s OPTIMUM FOUND


rcpsp/heur_output_bi_constraints/Log=5/heurj30.txt
encoding rcpsp/j30.sm/j302_8.sm nv: 19140 nc: 54777 enctime: 0.40
encoding rcpsp/j30.sm/j302_8.sm nv: 8004 nc: 22233 enctime: 0.10
c File: j302_8.smnaivebi5.wcnf
c optimal
c final solution cost: 54
c CPU time: 0.140169
s OPTIMUM FOUND

c File: j302_8.smbi5.wcnf
c optimal
c final solution cost: 54
c CPU time: 0.037409
s OPTIMUM FOUND


rcpsp/heur_output_bi_constraints/Log=5/heurj30.txt
encoding rcpsp/j30.sm/j3029_10.sm nv: 124740 nc: 255772 enctime: 1.46
encoding rcpsp/j30.sm/j3029_10.sm nv: 87780 nc: 179732 enctime: 1.08
c File: j3029_10.smnaivebi5.wcnf
c optimal
c final solution cost: 73
c CPU time: 3.495628
s OPTIMUM FOUND

c File: j3029_10.smbi5.wcnf
c optimal
c final solution cost: 73
c CPU time: 4.908296
s OPTIMUM FOUND


rcpsp/heur_output_bi_constraints/Log=5/heurj30.txt
encoding rcpsp/j30.sm/j3029_1.sm nv: 164472 nc: 343740 enctime: 2.08
encoding rcpsp/j30.sm/j3029_1.sm nv: 104412 nc: 217705 enctime: 1.24
c File: j3029_1.smnaivebi5.wcnf
c timeout
c final solution cost: 86
c CPU time: 60.323815
s UNKNOWN

c File: j3029_1.smbi5.wcnf
c timeout
c final solution cost: 85
c CPU time: 60.179091
s UNKNOWN


rcpsp/heur_output_bi_constraints/Log=5/heurj30.txt
encoding rcpsp/j30.sm/j3029_2.sm nv: 169597 nc: 354116 enctime: 2.12
encoding rcpsp/j30.sm/j3029_2.sm nv: 140550 nc: 293232 enctime: 1.76
c File: j3029_2.smnaivebi5.wcnf
c timeout
c final solution cost: 88
c CPU time: 60.331291
s UNKNOWN

c File: j3029_2.smbi5.wcnf
c optimal
c final solution cost: 88
c CPU time: 60.105837
s OPTIMUM FOUND


rcpsp/heur_output_bi_constraints/Log=5/heurj30.txt
encoding rcpsp/j30.sm/j3029_3.sm nv: 139443 nc: 288909 enctime: 1.72
encoding rcpsp/j30.sm/j3029_3.sm nv: 86823 nc: 179469 enctime: 1.01
c File: j3029_3.smnaivebi5.wcnf
c timeout
c final solution cost: 77
c CPU time: 60.272297
s UNKNOWN

c File: j3029_3.smbi5.wcnf
c timeout
c final solution cost: 76
c CPU time: 60.148584
s UNKNOWN


rcpsp/heur_output_bi_constraints/Log=5/heurj30.txt
encoding rcpsp/j30.sm/j3029_4.sm nv: 155298 nc: 326299 enctime: 1.95
encoding rcpsp/j30.sm/j3029_4.sm nv: 96954 nc: 203151 enctime: 1.14
c File: j3029_4.smnaivebi5.wcnf
c timeout
c final solution cost: 103
c CPU time: 60.314632
s UNKNOWN

c File: j3029_4.smbi5.wcnf
c timeout
c final solution cost: 103
c CPU time: 60.166387
s UNKNOWN


rcpsp/heur_output_bi_constraints/Log=5/heurj30.txt
encoding rcpsp/j30.sm/j3029_5.sm nv: 159705 nc: 337212 enctime: 2.01
encoding rcpsp/j30.sm/j3029_5.sm nv: 103090 nc: 217148 enctime: 1.30
c File: j3029_5.smnaivebi5.wcnf
c optimal
c final solution cost: 98
c CPU time: 58.000367
s OPTIMUM FOUND

c File: j3029_5.smbi5.wcnf
c timeout
c final solution cost: 98
c CPU time: 60.183342
s UNKNOWN


rcpsp/heur_output_bi_constraints/Log=5/heurj30.txt
encoding rcpsp/j30.sm/j3029_6.sm nv: 179928 nc: 376708 enctime: 2.28
encoding rcpsp/j30.sm/j3029_6.sm nv: 109480 nc: 228634 enctime: 1.29
c File: j3029_6.smnaivebi5.wcnf
c timeout
c final solution cost: 88
c CPU time: 60.349448
s UNKNOWN

c File: j3029_6.smbi5.wcnf
c timeout
c final solution cost: 89
c CPU time: 60.185562
s UNKNOWN


rcpsp/heur_output_bi_constraints/Log=5/heurj30.txt
encoding rcpsp/j30.sm/j3029_7.sm nv: 159795 nc: 328930 enctime: 1.94
encoding rcpsp/j30.sm/j3029_7.sm nv: 112560 nc: 231358 enctime: 1.29
c File: j3029_7.smnaivebi5.wcnf
c optimal
c final solution cost: 69
c CPU time: 51.015557
s OPTIMUM FOUND

c File: j3029_7.smbi5.wcnf
c optimal
c final solution cost: 69
c CPU time: 32.590838
s OPTIMUM FOUND


rcpsp/heur_output_bi_constraints/Log=5/heurj30.txt
encoding rcpsp/j30.sm/j3029_8.sm nv: 197303 nc: 412214 enctime: 2.56
encoding rcpsp/j30.sm/j3029_8.sm nv: 103300 nc: 215108 enctime: 1.25
c File: j3029_8.smnaivebi5.wcnf
c timeout
c final solution cost: 78
c CPU time: 60.372838
s UNKNOWN

c File: j3029_8.smbi5.wcnf
c timeout
c final solution cost: 79
c CPU time: 60.168845
s UNKNOWN


rcpsp/heur_output_bi_constraints/Log=5/heurj30.txt
encoding rcpsp/j30.sm/j3029_9.sm nv: 164619 nc: 347426 enctime: 2.15
encoding rcpsp/j30.sm/j3029_9.sm nv: 102778 nc: 216360 enctime: 1.24
c File: j3029_9.smnaivebi5.wcnf
c timeout
c final solution cost: 99
c CPU time: 60.332570
s UNKNOWN

c File: j3029_9.smbi5.wcnf
c timeout
c final solution cost: 97
c CPU time: 60.187096
s UNKNOWN


rcpsp/heur_output_bi_constraints/Log=5/heurj30.txt
encoding rcpsp/j30.sm/j302_9.sm nv: 28906 nc: 81614 enctime: 0.58
encoding rcpsp/j30.sm/j302_9.sm nv: 10728 nc: 29398 enctime: 0.12
c File: j302_9.smnaivebi5.wcnf
c optimal
c final solution cost: 43
c CPU time: 0.175698
s OPTIMUM FOUND

c File: j302_9.smbi5.wcnf
c optimal
c final solution cost: 43
c CPU time: 0.039138
s OPTIMUM FOUND


rcpsp/heur_output_bi_constraints/Log=5/heurj30.txt
encoding rcpsp/j30.sm/j3030_10.sm nv: 228690 nc: 462627 enctime: 2.69
encoding rcpsp/j30.sm/j3030_10.sm nv: 81774 nc: 164661 enctime: 0.96
c File: j3030_10.smnaivebi5.wcnf
c optimal
c final solution cost: 51
c CPU time: 7.445360
s OPTIMUM FOUND

c File: j3030_10.smbi5.wcnf
c optimal
c final solution cost: 51
c CPU time: 4.955397
s OPTIMUM FOUND


rcpsp/heur_output_bi_constraints/Log=5/heurj30.txt
encoding rcpsp/j30.sm/j3030_1.sm nv: 193680 nc: 390285 enctime: 2.29
encoding rcpsp/j30.sm/j3030_1.sm nv: 82045 nc: 164774 enctime: 0.86
c File: j3030_1.smnaivebi5.wcnf
c optimal
c final solution cost: 47
c CPU time: 5.402794
s OPTIMUM FOUND

c File: j3030_1.smbi5.wcnf
c optimal
c final solution cost: 47
c CPU time: 3.459251
s OPTIMUM FOUND


rcpsp/heur_output_bi_constraints/Log=5/heurj30.txt
encoding rcpsp/j30.sm/j3030_2.sm nv: 240828 nc: 493897 enctime: 2.96
encoding rcpsp/j30.sm/j3030_2.sm nv: 101199 nc: 206682 enctime: 1.19
c File: j3030_2.smnaivebi5.wcnf
c optimal
c final solution cost: 66
c CPU time: 9.290132
s OPTIMUM FOUND

c File: j3030_2.smbi5.wcnf
c optimal
c final solution cost: 66
c CPU time: 5.210209
s OPTIMUM FOUND


rcpsp/heur_output_bi_constraints/Log=5/heurj30.txt
encoding rcpsp/j30.sm/j3030_3.sm nv: 215302 nc: 438379 enctime: 2.57
encoding rcpsp/j30.sm/j3030_3.sm nv: 80414 nc: 162987 enctime: 0.94
c File: j3030_3.smnaivebi5.wcnf
c optimal
c final solution cost: 51
c CPU time: 2.168708
s OPTIMUM FOUND

c File: j3030_3.smbi5.wcnf
c optimal
c final solution cost: 51
c CPU time: 0.668464
s OPTIMUM FOUND


rcpsp/heur_output_bi_constraints/Log=5/heurj30.txt
encoding rcpsp/j30.sm/j3030_4.sm nv: 225428 nc: 456825 enctime: 2.64
encoding rcpsp/j30.sm/j3030_4.sm nv: 95060 nc: 191961 enctime: 1.08
c File: j3030_4.smnaivebi5.wcnf
c optimal
c final solution cost: 50
c CPU time: 4.970094
s OPTIMUM FOUND

c File: j3030_4.smbi5.wcnf
c optimal
c final solution cost: 50
c CPU time: 0.459503
s OPTIMUM FOUND


rcpsp/heur_output_bi_constraints/Log=5/heurj30.txt
encoding rcpsp/j30.sm/j3030_5.sm nv: 237360 nc: 482852 enctime: 2.86
encoding rcpsp/j30.sm/j3030_5.sm nv: 91080 nc: 184462 enctime: 1.06
c File: j3030_5.smnaivebi5.wcnf
c optimal
c final solution cost: 53
c CPU time: 3.147266
s OPTIMUM FOUND

c File: j3030_5.smbi5.wcnf
c optimal
c final solution cost: 53
c CPU time: 3.185089
s OPTIMUM FOUND


rcpsp/heur_output_bi_constraints/Log=5/heurj30.txt
encoding rcpsp/j30.sm/j3030_6.sm nv: 204516 nc: 417174 enctime: 2.48
encoding rcpsp/j30.sm/j3030_6.sm nv: 89700 nc: 182262 enctime: 1.04
c File: j3030_6.smnaivebi5.wcnf
c optimal
c final solution cost: 60
c CPU time: 10.287302
s OPTIMUM FOUND

c File: j3030_6.smbi5.wcnf
c optimal
c final solution cost: 60
c CPU time: 3.733511
s OPTIMUM FOUND


rcpsp/heur_output_bi_constraints/Log=5/heurj30.txt
encoding rcpsp/j30.sm/j3030_7.sm nv: 280440 nc: 577651 enctime: 3.55
encoding rcpsp/j30.sm/j3030_7.sm nv: 114912 nc: 235705 enctime: 1.23
c File: j3030_7.smnaivebi5.wcnf
c optimal
c final solution cost: 66
c CPU time: 3.873144
s OPTIMUM FOUND

c File: j3030_7.smbi5.wcnf
c optimal
c final solution cost: 66
c CPU time: 2.550163
s OPTIMUM FOUND


rcpsp/heur_output_bi_constraints/Log=5/heurj30.txt
encoding rcpsp/j30.sm/j3030_8.sm nv: 217856 nc: 437889 enctime: 2.59
encoding rcpsp/j30.sm/j3030_8.sm nv: 66240 nc: 132391 enctime: 0.71
c File: j3030_8.smnaivebi5.wcnf
c optimal
c final solution cost: 43
c CPU time: 3.102641
s OPTIMUM FOUND

c File: j3030_8.smbi5.wcnf
c optimal
c final solution cost: 43
c CPU time: 0.309001
s OPTIMUM FOUND


rcpsp/heur_output_bi_constraints/Log=5/heurj30.txt
encoding rcpsp/j30.sm/j3030_9.sm nv: 291233 nc: 588276 enctime: 3.50
encoding rcpsp/j30.sm/j3030_9.sm nv: 81350 nc: 163350 enctime: 0.88
c File: j3030_9.smnaivebi5.wcnf
c optimal
c final solution cost: 44
c CPU time: 2.721770
s OPTIMUM FOUND

c File: j3030_9.smbi5.wcnf
c optimal
c final solution cost: 44
c CPU time: 0.347924
s OPTIMUM FOUND


rcpsp/heur_output_bi_constraints/Log=5/heurj30.txt
encoding rcpsp/j30.sm/j303_10.sm nv: 25454 nc: 69914 enctime: 0.49
encoding rcpsp/j30.sm/j303_10.sm nv: 9295 nc: 24714 enctime: 0.10
c File: j303_10.smnaivebi5.wcnf
c optimal
c final solution cost: 59
c CPU time: 0.161838
s OPTIMUM FOUND

c File: j303_10.smbi5.wcnf
c optimal
c final solution cost: 59
c CPU time: 0.035130
s OPTIMUM FOUND


rcpsp/heur_output_bi_constraints/Log=5/heurj30.txt
encoding rcpsp/j30.sm/j3031_10.sm nv: 253692 nc: 515661 enctime: 3.07
encoding rcpsp/j30.sm/j3031_10.sm nv: 102060 nc: 206677 enctime: 1.20
c File: j3031_10.smnaivebi5.wcnf
c optimal
c final solution cost: 51
c CPU time: 3.280286
s OPTIMUM FOUND

c File: j3031_10.smbi5.wcnf
c optimal
c final solution cost: 51
c CPU time: 1.731671
s OPTIMUM FOUND


rcpsp/heur_output_bi_constraints/Log=5/heurj30.txt
encoding rcpsp/j30.sm/j3031_1.sm nv: 249514 nc: 497086 enctime: 2.89
encoding rcpsp/j30.sm/j3031_1.sm nv: 75196 nc: 149062 enctime: 0.90
c File: j3031_1.smnaivebi5.wcnf
c optimal
c final solution cost: 43
c CPU time: 0.514537
s OPTIMUM FOUND

c File: j3031_1.smbi5.wcnf
c optimal
c final solution cost: 43
c CPU time: 0.131165
s OPTIMUM FOUND


rcpsp/heur_output_bi_constraints/Log=5/heurj30.txt
encoding rcpsp/j30.sm/j3031_2.sm nv: 284868 nc: 569028 enctime: 3.42
encoding rcpsp/j30.sm/j3031_2.sm nv: 111168 nc: 221328 enctime: 1.18
c File: j3031_2.smnaivebi5.wcnf
c optimal
c final solution cost: 56
c CPU time: 0.593104
s OPTIMUM FOUND

c File: j3031_2.smbi5.wcnf
c optimal
c final solution cost: 56
c CPU time: 0.204499
s OPTIMUM FOUND


rcpsp/heur_output_bi_constraints/Log=5/heurj30.txt
encoding rcpsp/j30.sm/j3031_3.sm nv: 363664 nc: 733924 enctime: 4.36
encoding rcpsp/j30.sm/j3031_3.sm nv: 112336 nc: 225724 enctime: 1.34
c File: j3031_3.smnaivebi5.wcnf
c optimal
c final solution cost: 54
c CPU time: 0.971847
s OPTIMUM FOUND

c File: j3031_3.smbi5.wcnf
c optimal
c final solution cost: 54
c CPU time: 0.280737
s OPTIMUM FOUND


rcpsp/heur_output_bi_constraints/Log=5/heurj30.txt
encoding rcpsp/j30.sm/j3031_4.sm nv: 232704 nc: 465308 enctime: 2.73
encoding rcpsp/j30.sm/j3031_4.sm nv: 84032 nc: 167412 enctime: 0.89
c File: j3031_4.smnaivebi5.wcnf
c optimal
c final solution cost: 50
c CPU time: 0.576358
s OPTIMUM FOUND

c File: j3031_4.smbi5.wcnf
c optimal
c final solution cost: 50
c CPU time: 0.205356
s OPTIMUM FOUND


rcpsp/heur_output_bi_constraints/Log=5/heurj30.txt
encoding rcpsp/j30.sm/j3031_5.sm nv: 215904 nc: 436518 enctime: 2.54
encoding rcpsp/j30.sm/j3031_5.sm nv: 85808 nc: 172848 enctime: 0.90
c File: j3031_5.smnaivebi5.wcnf
c optimal
c final solution cost: 48
c CPU time: 1.526350
s OPTIMUM FOUND

c File: j3031_5.smbi5.wcnf
c optimal
c final solution cost: 48
c CPU time: 0.509561
s OPTIMUM FOUND


rcpsp/heur_output_bi_constraints/Log=5/heurj30.txt
encoding rcpsp/j30.sm/j3031_6.sm nv: 232848 nc: 465951 enctime: 2.72
encoding rcpsp/j30.sm/j3031_6.sm nv: 80784 nc: 160959 enctime: 0.85
c File: j3031_6.smnaivebi5.wcnf
c optimal
c final solution cost: 50
c CPU time: 0.585144
s OPTIMUM FOUND

c File: j3031_6.smbi5.wcnf
c optimal
c final solution cost: 50
c CPU time: 0.138639
s OPTIMUM FOUND


rcpsp/heur_output_bi_constraints/Log=5/heurj30.txt
encoding rcpsp/j30.sm/j3031_7.sm nv: 277780 nc: 566015 enctime: 3.38
encoding rcpsp/j30.sm/j3031_7.sm nv: 97954 nc: 198614 enctime: 1.16
c File: j3031_7.smnaivebi5.wcnf
c optimal
c final solution cost: 61
c CPU time: 0.809674
s OPTIMUM FOUND

c File: j3031_7.smbi5.wcnf
c optimal
c final solution cost: 61
c CPU time: 0.269599
s OPTIMUM FOUND


rcpsp/heur_output_bi_constraints/Log=5/heurj30.txt
encoding rcpsp/j30.sm/j3031_8.sm nv: 249832 nc: 505105 enctime: 3.01
encoding rcpsp/j30.sm/j3031_8.sm nv: 107712 nc: 217065 enctime: 1.25
c File: j3031_8.smnaivebi5.wcnf
c optimal
c final solution cost: 49
c CPU time: 1.047388
s OPTIMUM FOUND

c File: j3031_8.smbi5.wcnf
c optimal
c final solution cost: 49
c CPU time: 0.302939
s OPTIMUM FOUND


